
Log started (V11.2.0) Wed Feb 10 12:23:26 2016


Problem 'foo.lp' read.
Read time =    0.00 sec.
Tried aggregator 1 time.
No LP presolve or aggregator reductions.
Presolve time =    0.00 sec.

Iteration log . . .
Iteration:     1   Dual objective     =             0.635751

Dual simplex - Optimal:  Objective =  1.9802540000e+00
Solution time =    0.00 sec.  Iterations = 5 (0)


Variable Name           Solution Value
x0x0                          1.000000
x1x4                          1.000000
x2x3                          1.000000
x3x1                          1.000000
x4x2                          1.000000
All other variables matching 'x*' are 0.

Log started (V11.2.0) Wed Feb 10 12:23:36 2016


Log started (V11.2.0) Wed Feb 10 12:39:16 2016


Problem 'foo.lp' read.
Read time =    0.00 sec.

Problem 'foo.lp' read.
Read time =    0.00 sec.
Tried aggregator 1 time.
No LP presolve or aggregator reductions.
Presolve time =    0.00 sec.

Iteration log . . .
Iteration:     1   Dual objective     =             0.635751

Dual simplex - Optimal:  Objective =  1.9802540000e+00
Solution time =    0.00 sec.  Iterations = 5 (0)

Using devex.

Primal simplex - Optimal:  Objective =  1.9802540000e+00
Solution time =    0.00 sec.  Iterations = 0 (0)


Log started (V11.2.0) Wed Feb 10 13:07:50 2016


Problem 'foo.lp' read.
Read time =    0.00 sec.
Tried aggregator 1 time.
No LP presolve or aggregator reductions.
Presolve time =    0.00 sec.

Iteration log . . .
Iteration:     1   Dual objective     =             0.635751

Dual simplex - Optimal:  Objective =  1.9802540000e+00
Solution time =    0.00 sec.  Iterations = 5 (0)


Variable Name           Solution Value
x0x0                          1.000000
x1x4                          1.000000
x2x3                          1.000000
x3x1                          1.000000
x4x2                          1.000000
All other variables matching '*' are 0.
